755.71 0
0 48 47 36 69 71 60 70 20 37 5 29 45 0 
0 9 25 55 50 18 24 49 56 23 63 16 0 
0 68 2 28 61 21 74 30 4 0 
0 62 22 64 42 41 43 1 73 33 6 0 
0 34 52 27 15 57 13 54 19 35 8 46 0 
0 75 51 3 44 32 40 17 0 
0 7 14 59 66 65 11 53 0 
0 12 72 39 31 10 38 58 26 67 0 
